StudentsNr = 10;
InstructorsNr = 78;
DaysNr = 1;
SlotsPerDay = 60;
AvailabilitySlotsLenght = 20;
RoomNr = 2;
ProgrammNr = 1;
DegreeNr = 1;
RolesNr = 4;
CoursesNr = 4;
InstructorsProgramm = [{1}, {1}, {1}, {1}, {1}, {1}, {1}, {1}, {1}, {1}, {1}, {1}, {1}, {1}, {1}, {1}, {1}, {1}, {1}, {1}, {1}, {1}, {1}, {1}, {1}, {1}, {1}, {1}, {1}, {1}, {1}, {1}, {1}, {1}, {1}, {1}, {1}, {1}, {1}, {1}, {1}, {1}, {1}, {1}, {1}, {1}, {1}, {1}, {1}, {1}, {1}, {1}, {1}, {1}, {1}, {1}, {1}, {1}, {1}, {1}, {1}, {1}, {1}, {1}, {1}, {1}, {1}, {1}, {1}, {1}, {1}, {1}, {1}, {1}, {1}, {1}, {1}, {1}];
InstructorRolesPerProgramm = [|{1, 2, 3, 4, 6, 10, 14, 16, 17, 19, 21, 23, 24, 25, 27, 28, 32, 34, 36, 37, 39, 40, 42, 43, 46, 51, 52, 54, 57, 62, 64, 65, 66, 68, 70, 71, 72, 74}, {2, 3, 4, 8, 12, 14, 15, 16, 19, 21, 23, 26, 28, 29, 32, 33, 36, 37, 38, 41, 42, 43, 45, 49, 50, 51, 53, 57, 58, 61, 62, 72, 75, 77, 78}, {1, 4, 5, 8, 10, 12, 17, 19, 21, 22, 23, 24, 28, 30, 37, 38, 39, 40, 42, 43, 46, 47, 49, 51, 54, 58, 65, 69, 71, 72, 74, 75, 78}, {2, 3, 6, 8, 13, 14, 18, 19, 20, 22, 24, 25, 26, 27, 28, 30, 31, 32, 36, 38, 40, 41, 43, 46, 48, 49, 50, 53, 56, 62, 64, 66, 68, 69, 76, 78}|];
InstructorsAvailability = [|1, 1, 1, |0, 1, 1, |1, 1, 1, |0, 1, 1, |0, 0, 1, |0, 0, 1, |0, 1, 1, |0, 1, 1, |0, 0, 0, |1, 1, 1, |1, 1, 1, |0, 0, 1, |0, 0, 0, |0, 1, 1, |1, 1, 1, |1, 1, 1, |1, 1, 1, |0, 1, 1, |1, 1, 1, |1, 1, 1, |0, 0, 0, |1, 1, 1, |0, 0, 1, |0, 1, 1, |1, 1, 1, |1, 1, 0, |1, 1, 1, |1, 1, 1, |0, 1, 1, |0, 1, 0, |0, 0, 1, |0, 1, 1, |1, 0, 1, |0, 0, 1, |0, 0, 0, |1, 1, 1, |0, 0, 0, |1, 1, 1, |0, 0, 0, |1, 1, 0, |1, 1, 1, |1, 1, 1, |0, 0, 0, |0, 1, 1, |1, 1, 1, |1, 0, 1, |1, 0, 1, |1, 1, 1, |1, 1, 1, |1, 1, 1, |1, 1, 1, |1, 1, 1, |0, 0, 1, |0, 0, 1, |0, 0, 1, |1, 1, 1, |0, 1, 1, |1, 1, 1, |0, 1, 1, |0, 0, 1, |1, 1, 1, |1, 1, 1, |1, 1, 1, |0, 1, 1, |0, 0, 0, |1, 1, 1, |0, 1, 1, |1, 1, 1, |1, 1, 1, |1, 1, 1, |1, 1, 1, |1, 1, 1, |1, 1, 1, |0, 1, 1, |0, 1, 1, |0, 0, 1, |1, 1, 1, |1, 1, 0|];
StudentsProgramm = [1, 1, 1, 1, 1, 1, 1, 1, 1, 1];
StudentsDegree = [1, 1, 1, 1, 1, 1, 1, 1, 1, 1];
StudentsSupervisorId = [68, 3, 41, 49, 18, 27, 72, 7, 18, 70];
StudentsCourseIds = [{}, {}, {}, {}, {}, {}, {}, {}, {}, {}];
StudentsAvailability = [|0, 1, 1, |0, 1, 1, |0, 0, 0, |0, 1, 1, |1, 1, 1, |1, 1, 1, |0, 1, 1, |0, 1, 1, |1, 1, 1, |0, 0, 1|];
TheoryticalMinCard = [0, 0, 0, 0, 0, 0, 0, 1, 0, 0];
CoursesInstructorIds = [{3, 7, 16, 17, 18, 26, 34, 35, 40, 45, 47, 49, 50, 58, 65, 66, 72, 73, 75, 76, 78}, {2, 3, 5, 7, 8, 11, 12, 15, 16, 17, 18, 19, 20, 21, 22, 23, 24, 26, 28, 30, 31, 32, 33, 35, 40, 41, 42, 44, 46, 48, 50, 53, 54, 56, 57, 58, 59, 60, 63, 67, 71, 72, 73, 74, 75, 76, 77, 78}, {2, 3, 4, 5, 7, 8, 9, 11, 12, 13, 16, 18, 21, 22, 25, 27, 28, 29, 31, 33, 34, 37, 39, 41, 42, 46, 47, 48, 49, 50, 52, 53, 56, 58, 59, 60, 62, 63, 65, 67, 71, 72, 73, 74, 75, 76, 78}, {1, 2, 3, 4, 5, 6, 7, 11, 12, 14, 16, 17, 18, 19, 21, 24, 25, 27, 29, 31, 34, 38, 39, 40, 42, 43, 44, 45, 46, 47, 48, 49, 50, 51, 53, 58, 63, 64, 66, 70, 71, 72, 73, 74, 75, 76, 78}];
RolesDemands = [9, 26, 7, 9];
RolesContinuity = [1];
ExamLen = [1, 1, 1, 1, 1, 1, 1, 1, 1, 1];
LunchTsMinLen = 0;
LunchStarts = [27..32];
SupervisorAvailable = 5;
OptimalLunchLenght = [2, 0];
OptimalStartTs = [2, 0];
OptimalFinishTs = [2, 60];
MinimizeRooms = 200;
RolesSoftContinuity = [|1, 2, 3, 4|0, 0, 2, 4|];
SameDegreeInRoom = 10;
Mergeability = 1;
